; Options: -in -smt2
(set-option :produce-unsat-assumptions true)

(declare-fun start!1113 () Bool)

(assert start!1113)

(declare-fun res!3806 () Bool)

(declare-fun e!2628 () Bool)

(assert (=> start!1113 (=> (not res!3806) (not e!2628))))

(declare-fun jz!67 () (_ BitVec 32))

(declare-datatypes ((array!402 0))(
  ( (array!403 (arr!176 (Array (_ BitVec 32) (_ FloatingPoint 11 53))) (size!176 (_ BitVec 32))) )
))
(declare-fun qq!69 () array!402)

(assert (=> start!1113 (= res!3806 (and (bvsle #b00000000000000000000000000000000 jz!67) (bvslt jz!67 #b00000000000000000000000000010100) (= (size!176 qq!69) #b00000000000000000000000000010100)))))

(assert (=> start!1113 e!2628))

(assert (=> start!1113 true))

(declare-fun array_inv!126 (array!402) Bool)

(assert (=> start!1113 (array_inv!126 qq!69)))

(declare-fun b!4903 () Bool)

(declare-fun res!3807 () Bool)

(assert (=> b!4903 (=> (not res!3807) (not e!2628))))

(declare-fun qqInv!0 (array!402) Bool)

(assert (=> b!4903 (= res!3807 (qqInv!0 qq!69))))

(declare-fun b!4904 () Bool)

(assert (=> b!4904 (= e!2628 false)))

(assert (= (and start!1113 res!3806) b!4903))

(assert (= (and b!4903 res!3807) b!4904))

(declare-fun m!6403 () Bool)

(assert (=> start!1113 m!6403))

(declare-fun m!6405 () Bool)

(assert (=> b!4903 m!6405))

(declare-fun m!6407 () Bool)

(assert (=> b!4904 m!6407))

(declare-fun m!6409 () Bool)

(assert (=> b!4904 m!6409))

(declare-fun m!6411 () Bool)

(assert (=> b!4904 m!6411))

(declare-fun m!6413 () Bool)

(assert (=> b!4904 m!6413))

(declare-fun m!6415 () Bool)

(assert (=> b!4904 m!6415))

(declare-fun m!6417 () Bool)

(assert (=> b!4904 m!6417))

(declare-fun m!6419 () Bool)

(assert (=> b!4904 m!6419))

(declare-fun m!6421 () Bool)

(assert (=> b!4904 m!6421))

(declare-fun m!6423 () Bool)

(assert (=> b!4904 m!6423))

(check-sat (not b!4903) (not start!1113))
(check-sat)
